25414,11329,19264,17070,17238,13444,7462,15968,16157,15405,23606,4272,2883,24066,23571,25393,21731,19564,15213,4800,2905,7746,6517,12528,2384,867,1394,2718,3599,15974,13950,16752,11156,22906,15353,4969,7667,3425,12372,2842,676,25826,100,13322,19972,9178,16575,10462,735,14920,12991,12739,24762,15749,21186,16648,16696,8878,12517,17658,2506,14556,14034,21784,21866,5033,1580,5037,21286,8870,11278,11694,14962,23274,8824,12008,25677,18143,17451,157,25414